<instance format="XCSP3" type="CSP">
  <variables>
    <var id="x0"> 1 3 10 12 </var>
    <var id="x1"> 4 5 12 </var>
    <var id="x2"> 5 6 10 </var>
    <var id="x3"> 3 6 12 </var>
    <var id="x4"> 3..5 10 </var>
    <var id="x5"> 3 4 6 12 </var>
    <var id="x6"> 4..6 </var>
    <var id="x7"> 0 3 7 9 12 </var>
    <var id="x8"> 0 8 9 </var>
    <var id="x9"> 0 3 9 12 </var>
    <var id="x10"> 3 8 9 11 </var>
    <var id="x11"> 0 3 7 </var>
    <var id="x12"> 0 3 7 12 </var>
    <var id="x13"> 3 8 11 12 </var>
    <var id="x14"> 4 5 9 11 </var>
    <var id="x15"> 2 5..7 11 </var>
    <var id="x16"> 2 6 9 </var>
    <var id="x17"> 4 6 7 </var>
    <var id="x18"> 2 4 5 </var>
    <var id="x19"> 4 6 7 9 </var>
    <var id="x20"> 2 7 9 </var>
    <var id="x21"> 1 9 10 14 </var>
    <var id="x22"> 9 13 </var>
    <var id="x23"> 1 9 10 </var>
    <var id="x24"> 4 5 10 14 </var>
    <var id="x25"> 1 4 9 10 </var>
    <var id="x26"> 5 13 14 </var>
    <var id="x27"> 4 5 9 14 </var>
    <var id="x28"> 7 10 12 14 </var>
    <var id="x29"> 2 7 8 10 11 </var>
    <var id="x30"> 7 14 </var>
    <var id="x31"> 2 8 10 14 </var>
    <var id="x32"> 7 8 10 </var>
    <var id="x33"> 2 7 10 12 </var>
    <var id="x34"> 7 11 14 </var>
    <var id="x35"> 3 10 14 </var>
    <var id="x36"> 3 5 6 11 </var>
    <var id="x37"> 5 11 14 </var>
    <var id="x38"> 10 13 14 </var>
    <var id="x39"> 3 5 10 11 </var>
    <var id="x40"> 10 11 </var>
    <var id="x41"> 3 6 14 </var>
    <var id="x42"> 1 5 8 11 </var>
    <var id="x43"> 5 8 10 11 </var>
    <var id="x44"> 5 8 10 11 </var>
    <var id="x45"> 1 8 10 11 </var>
    <var id="x46"> 13 </var>
    <var id="x47"> 1 10 12 13 </var>
    <var id="x48"> 12 </var>
    <var id="x49"> 0 7 9 10 14 </var>
    <var id="x50"> 0 9 14 </var>
    <var id="x51"> 2 7 8 10 </var>
    <var id="x52"> 0 8..10 14 </var>
    <var id="x53"> 2 8 10 14 </var>
    <var id="x54"> 0 7 14 </var>
    <var id="x55"> 7 9 14 </var>
    <var id="x56"> 5 6 9 </var>
    <var id="x57"> 0 4 5 9 </var>
    <var id="x58"> 0 7 9 </var>
    <var id="x59"> 4 6 7 9 </var>
    <var id="x60"> 7 9 13 </var>
    <var id="x61"> 0 4 6 7 </var>
    <var id="x62"> 5 13 </var>
    <var id="x63"> 3 5 8 9 </var>
    <var id="x64"> 0 3 9 12 </var>
    <var id="x65"> 3..5 8 9 </var>
    <var id="x66"> 4 8 9 </var>
    <var id="x67"> 9 12 </var>
    <var id="x68"> 3 5 8 12 </var>
    <var id="x69"> 4 5 9 </var>
    <var id="x70"> 1 3 6 11 </var>
    <var id="x71"> 4 11 14 </var>
    <var id="x72"> 4 10 14 </var>
    <var id="x73"> 2 3 6 </var>
    <var id="x74"> 1 10 11 </var>
    <var id="x75"> 3 4 6 14 </var>
    <var id="x76"> 1 2 10 </var>
    <var id="x77"> 3 4 6 14 </var>
    <var id="x78"> 6 8 9 </var>
    <var id="x79"> 4 9 14 </var>
    <var id="x80"> 4 6 7 14 </var>
    <var id="x81"> 4 8 10 14 </var>
    <var id="x82"> 4 6..10 </var>
    <var id="x83"> 8 14 </var>
    <var id="x84"> 4 6 7 9 14 </var>
    <var id="x85"> 0 3 7 9 14 </var>
    <var id="x86"> 0 8 9 13 14 </var>
    <var id="x87"> 0 3 9 13 </var>
    <var id="x88"> 3 8 9 </var>
    <var id="x89"> 0 7..9 </var>
    <var id="x90"> 3 8 14 </var>
    <var id="x91"> 7 9 13 </var>
    <var id="x92"> 11 </var>
    <var id="x93"> 0 9 14 </var>
    <var id="x94"> 3 9 11 </var>
    <var id="x95"> 0 3 14 </var>
    <var id="x96"> 3 14 </var>
    <var id="x97"> 1 9 </var>
    <var id="x98"> 3 11 12 14 </var>
    <var id="x99"> 0 3 7 9 </var>
    <var id="x100"> 3 6 8 9 </var>
    <var id="x101"> 6..8 </var>
    <var id="x102"> 0 4 8 9 </var>
    <var id="x103"> 0 7..9 </var>
    <var id="x104"> 3 8 </var>
    <var id="x105"> 4 6 7 9 </var>
  </variables>
  <constraints>
    <group>
      <allDifferent> %... </allDifferent>
      <args> x0 x1 x2 x3 x4 x5 x6 </args>
      <args> x7 x8 x9 x10 x11 x12 x13 </args>
      <args> x14 x15 x16 x17 x18 x19 x20 </args>
      <args> x21 x22 x23 x24 x25 x26 x27 </args>
      <args> x28 x29 x30 x31 x32 x33 x34 </args>
      <args> x35 x36 x37 x38 x39 x40 x41 </args>
      <args> x42 x43 x44 x45 x46 x47 x48 </args>
      <args> x49 x50 x51 x52 x53 x54 x55 </args>
      <args> x56 x57 x58 x59 x60 x61 x62 </args>
      <args> x63 x64 x65 x66 x67 x68 x69 </args>
      <args> x70 x71 x72 x73 x74 x75 x76 x77 </args>
      <args> x78 x79 x80 x81 x82 x83 x84 </args>
      <args> x85 x86 x87 x88 x89 x90 x91 </args>
      <args> x92 x93 x94 x95 x96 x97 x98 </args>
      <args> x99 x100 x101 x102 x103 x104 x105 </args>
      <args> x0 x7 x21 x28 x35 x49 x85 x99 </args>
      <args> x36 x42 x56 x63 x70 x78 x100 </args>
      <args> x1 x14 x37 x50 x57 x71 x79 </args>
      <args> x2 x15 x29 x43 x51 x92 x101 </args>
      <args> x8 x38 x52 x72 x86 x93 x102 </args>
      <args> x3 x9 x16 x22 x64 x73 x87 </args>
      <args> x4 x10 x39 x44 x65 x88 x94 </args>
      <args> x23 x40 x45 x58 x74 x89 x103 </args>
      <args> x11 x17 x30 x46 x75 x80 x95 </args>
      <args> x18 x24 x31 x53 x81 x90 x96 </args>
      <args> x19 x25 x32 x59 x66 x82 x97 </args>
      <args> x20 x33 x47 x60 x67 x76 x91 </args>
      <args> x5 x12 x41 x48 x54 x61 x77 </args>
      <args> x13 x26 x62 x68 x83 x98 x104 </args>
      <args> x6 x27 x34 x55 x69 x84 x105 </args>
    </group>
  </constraints>
</instance>

